Generations:
0: ((27, 7, 12, 5, 37, 47, 18, 24, 2, 17, 9, 32, 36, 48, 35, 29, 34, 26, 38, 4, 14, 28, 20, 30, 41, 13, 49, 45, 6, 40, 43, 39, 8, 33, 46, 10, 19, 21, 22, 3, 42, 15, 1, 25, 23, 31, 16, 11, 44, 0), 1253)
1: ((27, 7, 12, 5, 37, 47, 18, 24, 2, 17, 9, 32, 36, 48, 35, 29, 34, 26, 38, 4, 14, 28, 20, 30, 41, 13, 49, 45, 6, 40, 43, 39, 8, 33, 46, 10, 19, 21, 22, 3, 42, 15, 1, 25, 23, 31, 16, 11, 44, 0), 1253)
2: ((27, 31, 35, 3, 6, 14, 48, 20, 32, 13, 43, 30, 1, 38, 8, 17, 45, 44, 4, 37, 12, 16, 0, 2, 15, 25, 22, 47, 19, 10, 18, 24, 9, 11, 42, 33, 46, 21, 40, 29, 5, 28, 7, 26, 41, 39, 23, 34, 49, 36), 1244)
3: ((3, 6, 14, 48, 20, 32, 43, 30, 1, 38, 8, 17, 45, 4, 37, 12, 16, 15, 25, 22, 36, 0, 44, 13, 2, 29, 47, 28, 19, 10, 18, 24, 9, 11, 42, 33, 46, 21, 40, 5, 7, 26, 41, 39, 31, 34, 23, 27, 49, 35), 1237)
4: ((32, 44, 11, 18, 14, 26, 29, 13, 9, 3, 1, 38, 45, 4, 15, 22, 19, 28, 35, 5, 31, 27, 40, 21, 36, 34, 48, 49, 43, 39, 8, 46, 37, 0, 10, 24, 2, 16, 23, 42, 12, 33, 17, 47, 25, 41, 7, 6, 20, 30), 1216)
5: ((32, 44, 11, 18, 14, 26, 29, 13, 9, 3, 1, 38, 45, 4, 15, 22, 19, 28, 35, 5, 31, 27, 40, 21, 36, 34, 48, 49, 43, 39, 8, 46, 37, 0, 10, 24, 2, 16, 23, 42, 12, 33, 17, 47, 25, 41, 7, 6, 20, 30), 1216)
6: ((32, 44, 11, 18, 14, 26, 29, 13, 9, 3, 1, 38, 45, 4, 15, 22, 19, 28, 35, 5, 31, 27, 40, 21, 36, 34, 48, 49, 43, 39, 8, 46, 37, 0, 10, 24, 2, 16, 23, 42, 12, 33, 17, 47, 25, 41, 7, 6, 20, 30), 1216)
7: ((32, 44, 11, 18, 14, 26, 29, 13, 9, 3, 1, 38, 45, 4, 15, 22, 19, 28, 35, 5, 31, 27, 40, 21, 36, 34, 48, 49, 43, 39, 8, 46, 37, 0, 10, 24, 2, 16, 23, 42, 12, 33, 17, 47, 25, 41, 7, 6, 20, 30), 1216)
8: ((32, 44, 11, 18, 14, 26, 29, 13, 9, 3, 1, 38, 45, 4, 15, 22, 19, 28, 35, 5, 31, 27, 40, 21, 36, 34, 48, 49, 43, 39, 8, 46, 37, 0, 10, 24, 2, 16, 23, 42, 12, 33, 17, 47, 25, 41, 7, 6, 20, 30), 1216)
9: ((32, 44, 11, 18, 14, 26, 29, 13, 9, 3, 1, 38, 45, 4, 15, 22, 19, 28, 35, 5, 31, 27, 40, 21, 36, 34, 48, 49, 43, 39, 8, 46, 37, 0, 10, 24, 2, 16, 23, 42, 12, 33, 17, 47, 25, 41, 7, 6, 20, 30), 1216)
10: ((32, 44, 11, 18, 14, 26, 29, 13, 9, 3, 1, 38, 45, 4, 15, 22, 19, 28, 35, 5, 31, 27, 40, 21, 36, 34, 48, 49, 43, 39, 8, 46, 37, 0, 10, 24, 2, 16, 23, 42, 12, 33, 17, 47, 25, 41, 7, 6, 20, 30), 1216)
11: ((32, 44, 11, 18, 14, 26, 29, 13, 9, 3, 1, 38, 45, 4, 15, 22, 19, 28, 35, 5, 31, 27, 40, 21, 36, 34, 48, 49, 43, 39, 8, 46, 37, 0, 10, 24, 2, 16, 23, 42, 12, 33, 17, 47, 25, 41, 7, 6, 20, 30), 1216)
12: ((32, 44, 11, 18, 14, 26, 29, 13, 9, 3, 1, 38, 45, 4, 15, 22, 19, 28, 35, 5, 31, 27, 40, 21, 36, 34, 48, 49, 43, 39, 8, 46, 37, 0, 10, 24, 2, 16, 23, 42, 12, 33, 17, 47, 25, 41, 7, 6, 20, 30), 1216)
13: ((41, 14, 26, 20, 32, 13, 43, 1, 38, 30, 17, 19, 23, 34, 36, 39, 0, 22, 2, 10, 29, 47, 48, 9, 24, 40, 44, 18, 25, 28, 16, 37, 11, 42, 33, 46, 21, 27, 45, 31, 49, 8, 15, 5, 12, 7, 3, 4, 35, 6), 1206)
14: ((41, 14, 26, 20, 32, 13, 43, 1, 38, 30, 17, 19, 23, 34, 36, 39, 0, 22, 2, 10, 29, 47, 48, 9, 24, 40, 44, 18, 25, 28, 16, 37, 11, 42, 33, 46, 21, 27, 45, 31, 49, 8, 15, 5, 12, 7, 3, 4, 35, 6), 1206)
15: ((41, 14, 26, 20, 32, 13, 43, 1, 38, 30, 17, 19, 23, 34, 36, 39, 0, 22, 2, 10, 29, 47, 48, 9, 24, 40, 44, 18, 25, 28, 16, 37, 11, 42, 33, 46, 21, 27, 45, 31, 49, 8, 15, 5, 12, 7, 3, 4, 35, 6), 1206)
16: ((41, 14, 26, 20, 32, 13, 43, 30, 1, 38, 17, 23, 34, 36, 39, 0, 22, 2, 29, 48, 40, 44, 27, 28, 16, 37, 25, 47, 19, 10, 18, 24, 9, 11, 42, 33, 46, 21, 45, 31, 49, 8, 15, 5, 12, 7, 3, 4, 35, 6), 1206)
17: ((41, 14, 26, 20, 32, 13, 43, 30, 1, 38, 17, 23, 34, 36, 39, 0, 22, 2, 29, 48, 40, 44, 27, 28, 16, 37, 25, 47, 19, 10, 18, 24, 9, 11, 42, 33, 46, 21, 45, 31, 49, 8, 15, 5, 12, 7, 3, 4, 35, 6), 1206)
18: ((41, 30, 28, 34, 9, 12, 35, 32, 26, 15, 38, 27, 29, 44, 22, 13, 1, 25, 11, 36, 33, 4, 31, 18, 45, 10, 14, 46, 37, 43, 47, 5, 21, 8, 20, 24, 2, 16, 23, 42, 49, 39, 7, 0, 17, 40, 48, 3, 19, 6), 1183)
19: ((41, 30, 28, 34, 9, 12, 35, 32, 26, 15, 38, 27, 29, 44, 22, 13, 1, 25, 11, 36, 33, 4, 31, 18, 45, 10, 14, 46, 37, 43, 47, 5, 21, 8, 20, 24, 2, 16, 23, 42, 49, 39, 7, 0, 17, 40, 48, 3, 19, 6), 1183)
20: ((41, 30, 28, 34, 9, 12, 35, 32, 26, 15, 38, 27, 29, 44, 22, 13, 1, 25, 11, 36, 33, 4, 31, 18, 45, 10, 14, 46, 37, 43, 47, 5, 21, 8, 20, 24, 2, 16, 23, 42, 49, 39, 7, 0, 17, 40, 48, 3, 19, 6), 1183)
21: ((41, 30, 28, 34, 9, 12, 35, 32, 26, 15, 38, 27, 29, 44, 22, 13, 1, 25, 11, 36, 33, 4, 31, 18, 45, 10, 14, 46, 37, 43, 47, 5, 21, 8, 20, 24, 2, 16, 23, 42, 49, 39, 7, 0, 17, 40, 48, 3, 19, 6), 1183)
22: ((41, 30, 28, 34, 9, 12, 35, 32, 26, 15, 38, 27, 29, 44, 22, 13, 1, 25, 11, 36, 33, 4, 31, 18, 45, 10, 14, 46, 37, 43, 47, 5, 21, 8, 20, 24, 2, 16, 23, 42, 49, 39, 7, 0, 17, 40, 48, 3, 19, 6), 1183)
23: ((41, 30, 28, 34, 9, 12, 35, 32, 26, 15, 38, 27, 29, 44, 22, 13, 1, 25, 11, 36, 33, 4, 31, 18, 45, 10, 14, 46, 37, 43, 47, 5, 21, 8, 20, 24, 2, 16, 23, 42, 49, 39, 7, 0, 17, 40, 48, 3, 19, 6), 1183)
24: ((41, 30, 28, 34, 9, 12, 35, 32, 26, 15, 38, 27, 29, 44, 22, 13, 1, 25, 11, 36, 33, 4, 31, 18, 45, 10, 14, 46, 37, 43, 47, 5, 21, 8, 20, 24, 2, 16, 23, 42, 49, 39, 7, 0, 17, 40, 48, 3, 19, 6), 1183)
25: ((41, 30, 28, 34, 9, 12, 35, 32, 26, 15, 38, 27, 29, 44, 22, 13, 1, 25, 11, 36, 33, 4, 31, 18, 45, 10, 14, 46, 37, 43, 47, 5, 21, 8, 20, 24, 2, 16, 23, 42, 49, 39, 7, 0, 17, 40, 48, 3, 19, 6), 1183)
26: ((41, 30, 28, 34, 9, 12, 35, 32, 26, 15, 38, 27, 29, 44, 22, 13, 1, 25, 11, 36, 33, 4, 31, 18, 45, 10, 14, 46, 37, 43, 47, 5, 21, 8, 20, 24, 2, 16, 23, 42, 49, 39, 7, 0, 17, 40, 48, 3, 19, 6), 1183)
27: ((41, 30, 28, 34, 9, 12, 35, 32, 26, 15, 38, 27, 29, 44, 22, 13, 1, 25, 11, 36, 33, 4, 31, 18, 45, 10, 14, 46, 37, 43, 47, 5, 21, 8, 20, 24, 2, 16, 23, 42, 49, 39, 7, 0, 17, 40, 48, 3, 19, 6), 1183)
28: ((41, 30, 28, 34, 9, 12, 35, 32, 26, 15, 38, 27, 29, 44, 22, 13, 1, 25, 11, 36, 33, 4, 31, 18, 45, 10, 14, 46, 37, 43, 47, 5, 21, 8, 20, 24, 2, 16, 23, 42, 49, 39, 7, 0, 17, 40, 48, 3, 19, 6), 1183)
29: ((41, 30, 28, 34, 9, 12, 35, 32, 26, 15, 38, 27, 29, 44, 22, 13, 1, 25, 11, 36, 33, 4, 31, 18, 45, 10, 14, 46, 37, 43, 47, 5, 21, 8, 20, 24, 2, 16, 23, 42, 49, 39, 7, 0, 17, 40, 48, 3, 19, 6), 1183)
30: ((41, 30, 28, 34, 9, 12, 35, 32, 26, 15, 38, 27, 29, 44, 22, 13, 1, 25, 11, 36, 33, 4, 31, 18, 45, 10, 14, 46, 37, 43, 47, 5, 21, 8, 20, 24, 2, 16, 23, 42, 49, 39, 7, 0, 17, 40, 48, 3, 19, 6), 1183)
31: ((41, 30, 28, 34, 9, 12, 35, 32, 26, 15, 38, 27, 29, 44, 22, 13, 1, 25, 11, 36, 33, 4, 31, 18, 45, 10, 14, 46, 37, 43, 47, 5, 21, 8, 20, 24, 2, 16, 23, 42, 49, 39, 7, 0, 17, 40, 48, 3, 19, 6), 1183)
32: ((41, 30, 28, 34, 9, 12, 35, 32, 26, 15, 38, 27, 29, 44, 22, 13, 1, 25, 11, 36, 33, 4, 31, 18, 45, 10, 14, 46, 37, 43, 47, 5, 21, 8, 20, 24, 2, 16, 23, 42, 49, 39, 7, 0, 17, 40, 48, 3, 19, 6), 1183)
33: ((41, 30, 28, 34, 9, 12, 35, 32, 26, 15, 38, 27, 29, 44, 22, 13, 1, 25, 11, 36, 33, 4, 31, 18, 45, 10, 14, 46, 37, 43, 47, 5, 21, 8, 20, 24, 2, 16, 23, 42, 49, 39, 7, 0, 17, 40, 48, 3, 19, 6), 1183)
34: ((41, 30, 28, 34, 9, 12, 35, 32, 26, 15, 38, 27, 29, 44, 22, 13, 1, 25, 11, 36, 33, 4, 31, 18, 45, 10, 14, 46, 37, 43, 47, 5, 21, 8, 20, 24, 2, 16, 23, 42, 49, 39, 7, 0, 17, 40, 48, 3, 19, 6), 1183)
35: ((41, 30, 28, 34, 9, 12, 35, 32, 26, 15, 38, 27, 29, 44, 22, 13, 1, 25, 11, 36, 33, 4, 31, 18, 45, 10, 14, 46, 37, 43, 47, 5, 21, 8, 20, 24, 2, 16, 23, 42, 49, 39, 7, 0, 17, 40, 48, 3, 19, 6), 1183)
36: ((41, 30, 28, 34, 9, 12, 35, 32, 26, 15, 38, 27, 29, 44, 22, 13, 1, 25, 11, 36, 33, 4, 31, 18, 45, 10, 14, 46, 37, 43, 47, 5, 21, 8, 20, 24, 2, 16, 23, 42, 49, 39, 7, 0, 17, 40, 48, 3, 19, 6), 1183)
37: ((41, 30, 28, 34, 9, 12, 35, 32, 26, 15, 38, 27, 29, 44, 22, 13, 1, 25, 11, 36, 33, 4, 31, 18, 45, 10, 14, 46, 37, 43, 47, 5, 21, 8, 20, 24, 2, 16, 23, 42, 49, 39, 7, 0, 17, 40, 48, 3, 19, 6), 1183)
38: ((41, 30, 28, 34, 9, 12, 35, 32, 26, 15, 38, 27, 29, 44, 22, 13, 1, 25, 11, 36, 33, 4, 31, 18, 45, 10, 14, 46, 37, 43, 47, 5, 21, 8, 20, 24, 2, 16, 23, 42, 49, 39, 7, 0, 17, 40, 48, 3, 19, 6), 1183)
39: ((41, 30, 28, 34, 9, 12, 35, 32, 26, 15, 38, 27, 29, 44, 22, 13, 1, 25, 11, 36, 33, 4, 31, 18, 45, 10, 14, 46, 37, 43, 47, 5, 21, 8, 20, 24, 2, 16, 23, 42, 49, 39, 7, 0, 17, 40, 48, 3, 19, 6), 1183)
40: ((41, 30, 28, 34, 9, 12, 35, 32, 26, 15, 38, 27, 29, 44, 22, 13, 1, 25, 11, 36, 33, 4, 31, 18, 45, 10, 14, 46, 37, 43, 47, 5, 21, 8, 20, 24, 2, 16, 23, 42, 49, 39, 7, 0, 17, 40, 48, 3, 19, 6), 1183)
41: ((41, 30, 28, 34, 9, 12, 35, 32, 26, 15, 38, 27, 29, 44, 22, 13, 1, 25, 11, 36, 33, 4, 31, 18, 45, 10, 14, 46, 37, 43, 47, 5, 21, 8, 20, 24, 2, 16, 23, 42, 49, 39, 7, 0, 17, 40, 48, 3, 19, 6), 1183)
42: ((41, 30, 28, 34, 9, 12, 35, 32, 26, 15, 38, 27, 29, 44, 22, 13, 1, 25, 11, 36, 33, 4, 31, 18, 45, 10, 14, 46, 37, 43, 47, 5, 21, 8, 20, 24, 2, 16, 23, 42, 49, 39, 7, 0, 17, 40, 48, 3, 19, 6), 1183)
43: ((41, 30, 28, 34, 9, 12, 35, 32, 26, 15, 38, 27, 29, 44, 22, 13, 1, 25, 11, 36, 33, 4, 31, 18, 45, 10, 14, 46, 37, 43, 47, 5, 21, 8, 20, 24, 2, 16, 23, 42, 49, 39, 7, 0, 17, 40, 48, 3, 19, 6), 1183)
44: ((41, 30, 28, 34, 9, 12, 35, 32, 26, 15, 38, 27, 29, 44, 22, 13, 1, 25, 11, 36, 33, 4, 31, 18, 45, 10, 14, 46, 37, 43, 47, 5, 21, 8, 20, 24, 2, 16, 23, 42, 49, 39, 7, 0, 17, 40, 48, 3, 19, 6), 1183)
45: ((41, 30, 28, 34, 9, 12, 35, 32, 26, 15, 38, 27, 29, 44, 22, 13, 1, 25, 11, 36, 33, 4, 31, 18, 45, 10, 14, 46, 37, 43, 47, 5, 21, 8, 20, 24, 2, 16, 23, 42, 49, 39, 7, 0, 17, 40, 48, 3, 19, 6), 1183)
46: ((41, 30, 28, 34, 9, 12, 35, 32, 26, 15, 38, 27, 29, 44, 22, 13, 1, 25, 11, 36, 33, 4, 31, 18, 45, 10, 14, 46, 37, 43, 47, 5, 21, 8, 20, 24, 2, 16, 23, 42, 49, 39, 7, 0, 17, 40, 48, 3, 19, 6), 1183)
47: ((41, 30, 28, 34, 9, 12, 35, 32, 26, 15, 38, 27, 29, 44, 22, 13, 1, 25, 11, 36, 33, 4, 31, 18, 45, 10, 14, 46, 37, 43, 47, 5, 21, 8, 20, 24, 2, 16, 23, 42, 49, 39, 7, 0, 17, 40, 48, 3, 19, 6), 1183)
48: ((41, 30, 28, 34, 9, 12, 35, 32, 26, 15, 38, 27, 29, 44, 22, 13, 1, 25, 11, 36, 33, 4, 31, 18, 45, 10, 14, 46, 37, 43, 47, 5, 21, 8, 20, 24, 2, 16, 23, 42, 49, 39, 7, 0, 17, 40, 48, 3, 19, 6), 1183)
49: ((41, 30, 28, 34, 9, 12, 35, 32, 26, 15, 38, 27, 29, 44, 22, 13, 1, 25, 11, 36, 33, 4, 31, 18, 45, 10, 14, 46, 37, 43, 47, 5, 21, 8, 20, 24, 2, 16, 23, 42, 49, 39, 7, 0, 17, 40, 48, 3, 19, 6), 1183)
50: ((41, 30, 28, 34, 9, 12, 35, 32, 26, 15, 38, 27, 29, 44, 22, 13, 1, 25, 11, 36, 33, 4, 31, 18, 45, 10, 14, 46, 37, 43, 47, 5, 21, 8, 20, 24, 2, 16, 23, 42, 49, 39, 7, 0, 17, 40, 48, 3, 19, 6), 1183)
51: ((41, 30, 28, 34, 9, 12, 35, 32, 26, 15, 38, 27, 29, 44, 22, 13, 1, 25, 11, 36, 33, 4, 31, 18, 45, 10, 14, 46, 37, 43, 47, 5, 21, 8, 20, 24, 2, 16, 23, 42, 49, 39, 7, 0, 17, 40, 48, 3, 19, 6), 1183)
52: ((41, 30, 28, 34, 9, 12, 35, 32, 26, 15, 38, 27, 29, 44, 22, 13, 1, 25, 11, 36, 33, 4, 31, 18, 45, 10, 14, 46, 37, 43, 47, 5, 21, 8, 20, 24, 2, 16, 23, 42, 49, 39, 7, 0, 17, 40, 48, 3, 19, 6), 1183)
53: ((41, 30, 28, 34, 9, 12, 35, 32, 26, 15, 38, 27, 29, 44, 22, 13, 1, 25, 11, 36, 33, 4, 31, 18, 45, 10, 14, 46, 37, 43, 47, 5, 21, 8, 20, 24, 2, 16, 23, 42, 49, 39, 7, 0, 17, 40, 48, 3, 19, 6), 1183)
54: ((41, 30, 28, 34, 9, 12, 35, 32, 26, 15, 38, 27, 29, 44, 22, 13, 1, 25, 11, 36, 33, 4, 31, 18, 45, 10, 14, 46, 37, 43, 47, 5, 21, 8, 20, 24, 2, 16, 23, 42, 49, 39, 7, 0, 17, 40, 48, 3, 19, 6), 1183)
55: ((41, 30, 28, 34, 9, 12, 35, 32, 26, 15, 38, 27, 29, 44, 22, 13, 1, 25, 11, 36, 33, 4, 31, 18, 45, 10, 14, 46, 37, 43, 47, 5, 21, 8, 20, 24, 2, 16, 23, 42, 49, 39, 7, 0, 17, 40, 48, 3, 19, 6), 1183)
56: ((41, 30, 28, 34, 9, 12, 35, 32, 26, 15, 38, 27, 29, 44, 22, 13, 1, 25, 11, 36, 33, 4, 31, 18, 45, 10, 14, 46, 37, 43, 47, 5, 21, 8, 20, 24, 2, 16, 23, 42, 49, 39, 7, 0, 17, 40, 48, 3, 19, 6), 1183)
57: ((41, 30, 28, 34, 9, 12, 35, 32, 26, 15, 38, 27, 29, 44, 22, 13, 1, 25, 11, 36, 33, 4, 31, 18, 45, 10, 14, 46, 37, 43, 47, 5, 21, 8, 20, 24, 2, 16, 23, 42, 49, 39, 7, 0, 17, 40, 48, 3, 19, 6), 1183)
58: ((41, 30, 28, 34, 9, 12, 35, 32, 26, 15, 38, 27, 29, 44, 22, 13, 1, 25, 11, 36, 33, 4, 31, 18, 45, 10, 14, 46, 37, 43, 47, 5, 21, 8, 20, 24, 2, 16, 23, 42, 49, 39, 7, 0, 17, 40, 48, 3, 19, 6), 1183)
59: ((41, 30, 28, 34, 9, 12, 35, 32, 26, 15, 38, 27, 29, 44, 22, 13, 1, 25, 11, 36, 33, 4, 31, 18, 45, 10, 14, 46, 37, 43, 47, 5, 21, 8, 20, 24, 2, 16, 23, 42, 49, 39, 7, 0, 17, 40, 48, 3, 19, 6), 1183)
60: ((41, 30, 28, 34, 9, 12, 35, 32, 26, 15, 38, 27, 29, 44, 22, 13, 1, 25, 11, 36, 33, 4, 31, 18, 45, 10, 14, 46, 37, 43, 47, 5, 21, 8, 20, 24, 2, 16, 23, 42, 49, 39, 7, 0, 17, 40, 48, 3, 19, 6), 1183)
61: ((41, 30, 28, 34, 9, 12, 35, 32, 26, 15, 38, 27, 29, 44, 22, 13, 1, 25, 11, 36, 33, 4, 31, 18, 45, 10, 14, 46, 37, 43, 47, 5, 21, 8, 20, 24, 2, 16, 23, 42, 49, 39, 7, 0, 17, 40, 48, 3, 19, 6), 1183)
62: ((41, 30, 28, 34, 9, 12, 35, 32, 26, 15, 38, 27, 29, 44, 22, 13, 1, 25, 11, 36, 33, 4, 31, 18, 45, 10, 14, 46, 37, 43, 47, 5, 21, 8, 20, 24, 2, 16, 23, 42, 49, 39, 7, 0, 17, 40, 48, 3, 19, 6), 1183)
63: ((41, 30, 28, 34, 9, 12, 35, 32, 26, 15, 38, 27, 29, 44, 22, 13, 1, 25, 11, 36, 33, 4, 31, 18, 45, 10, 14, 46, 37, 43, 47, 5, 21, 8, 20, 24, 2, 16, 23, 42, 49, 39, 7, 0, 17, 40, 48, 3, 19, 6), 1183)
64: ((41, 30, 28, 34, 9, 12, 35, 32, 26, 15, 38, 27, 29, 44, 22, 13, 1, 25, 11, 36, 33, 4, 31, 18, 45, 10, 14, 46, 37, 43, 47, 5, 21, 8, 20, 24, 2, 16, 23, 42, 49, 39, 7, 0, 17, 40, 48, 3, 19, 6), 1183)
65: ((41, 30, 28, 34, 9, 12, 35, 32, 26, 15, 38, 27, 29, 44, 22, 13, 1, 25, 11, 36, 33, 4, 31, 18, 45, 10, 14, 46, 37, 43, 47, 5, 21, 8, 20, 24, 2, 16, 23, 42, 49, 39, 7, 0, 17, 40, 48, 3, 19, 6), 1183)
66: ((41, 30, 28, 34, 9, 12, 35, 32, 26, 15, 38, 27, 29, 44, 22, 13, 1, 25, 11, 36, 33, 4, 31, 18, 45, 10, 14, 46, 37, 43, 47, 5, 21, 8, 20, 24, 2, 16, 23, 42, 49, 39, 7, 0, 17, 40, 48, 3, 19, 6), 1183)
67: ((41, 30, 28, 34, 9, 12, 35, 32, 26, 15, 38, 27, 29, 44, 22, 13, 1, 25, 11, 36, 33, 4, 31, 18, 45, 10, 14, 46, 37, 43, 47, 5, 21, 8, 20, 24, 2, 16, 23, 42, 49, 39, 7, 0, 17, 40, 48, 3, 19, 6), 1183)
68: ((41, 14, 20, 32, 26, 38, 43, 30, 1, 17, 19, 23, 34, 36, 0, 22, 2, 29, 40, 10, 47, 48, 9, 44, 27, 13, 28, 16, 37, 11, 18, 24, 42, 33, 7, 21, 25, 45, 39, 31, 49, 8, 15, 5, 12, 46, 3, 4, 35, 6), 1182)
69: ((41, 14, 20, 32, 26, 38, 43, 30, 1, 17, 19, 23, 34, 36, 0, 22, 2, 29, 40, 10, 47, 48, 9, 44, 27, 13, 28, 16, 37, 11, 18, 24, 42, 33, 7, 21, 25, 45, 39, 31, 49, 8, 15, 5, 12, 46, 3, 4, 35, 6), 1182)
70: ((41, 14, 20, 32, 26, 38, 43, 30, 1, 17, 19, 23, 34, 36, 0, 22, 2, 29, 40, 10, 47, 48, 9, 44, 27, 13, 28, 16, 37, 11, 18, 24, 42, 33, 7, 21, 25, 45, 39, 31, 49, 8, 15, 5, 12, 46, 3, 4, 35, 6), 1182)
71: ((41, 14, 20, 32, 26, 38, 43, 30, 1, 17, 19, 23, 34, 36, 0, 22, 2, 29, 40, 10, 47, 48, 9, 44, 27, 13, 28, 16, 37, 11, 18, 24, 42, 33, 7, 21, 25, 45, 39, 31, 49, 8, 15, 5, 12, 46, 3, 4, 35, 6), 1182)
72: ((41, 14, 20, 32, 26, 38, 43, 30, 1, 17, 19, 23, 34, 36, 0, 22, 2, 29, 40, 10, 47, 48, 9, 44, 27, 13, 28, 16, 37, 11, 18, 24, 42, 33, 7, 21, 25, 45, 39, 31, 49, 8, 15, 5, 12, 46, 3, 4, 35, 6), 1182)
73: ((41, 14, 20, 32, 26, 38, 43, 30, 1, 17, 19, 23, 34, 36, 0, 22, 2, 29, 40, 10, 47, 48, 9, 44, 27, 13, 28, 16, 37, 11, 18, 24, 42, 33, 7, 21, 25, 45, 39, 31, 49, 8, 15, 5, 12, 46, 3, 4, 35, 6), 1182)
74: ((41, 14, 20, 32, 26, 38, 43, 30, 1, 17, 19, 23, 34, 36, 0, 22, 2, 29, 40, 10, 47, 48, 9, 44, 27, 13, 28, 16, 37, 11, 18, 24, 42, 33, 7, 21, 25, 45, 39, 31, 49, 8, 15, 5, 12, 46, 3, 4, 35, 6), 1182)
75: ((41, 14, 20, 32, 26, 38, 43, 30, 1, 17, 19, 23, 34, 36, 0, 22, 2, 29, 40, 10, 47, 48, 9, 44, 27, 13, 28, 16, 37, 11, 18, 24, 42, 33, 7, 21, 25, 45, 39, 31, 49, 8, 15, 5, 12, 46, 3, 4, 35, 6), 1182)
76: ((41, 14, 20, 32, 26, 38, 43, 30, 1, 17, 19, 23, 34, 36, 0, 22, 2, 29, 40, 10, 47, 48, 9, 44, 27, 13, 28, 16, 37, 11, 18, 24, 42, 33, 7, 21, 25, 45, 39, 31, 49, 8, 15, 5, 12, 46, 3, 4, 35, 6), 1182)
77: ((41, 14, 20, 32, 26, 38, 43, 30, 1, 17, 19, 23, 34, 36, 0, 22, 2, 29, 40, 10, 47, 48, 9, 44, 27, 13, 28, 16, 37, 11, 18, 24, 42, 33, 7, 21, 25, 45, 39, 31, 49, 8, 15, 5, 12, 46, 3, 4, 35, 6), 1182)
78: ((41, 14, 20, 32, 26, 38, 43, 30, 1, 17, 19, 23, 34, 36, 0, 22, 2, 29, 40, 10, 47, 48, 9, 44, 27, 13, 28, 16, 37, 11, 18, 24, 42, 33, 7, 21, 25, 45, 39, 31, 49, 8, 15, 5, 12, 46, 3, 4, 35, 6), 1182)
79: ((41, 14, 20, 32, 26, 38, 43, 30, 1, 17, 19, 23, 34, 36, 0, 22, 2, 29, 40, 10, 47, 48, 9, 44, 27, 13, 28, 16, 37, 11, 18, 24, 42, 33, 7, 21, 25, 45, 39, 31, 49, 8, 15, 5, 12, 46, 3, 4, 35, 6), 1182)
80: ((41, 14, 20, 32, 26, 38, 43, 30, 1, 17, 19, 23, 34, 36, 0, 22, 2, 29, 40, 10, 47, 48, 9, 44, 27, 13, 28, 16, 37, 11, 18, 24, 42, 33, 7, 21, 25, 45, 39, 31, 49, 8, 15, 5, 12, 46, 3, 4, 35, 6), 1182)
81: ((41, 14, 20, 32, 26, 38, 43, 30, 1, 17, 19, 23, 34, 36, 0, 22, 2, 29, 40, 10, 47, 48, 9, 44, 27, 13, 28, 16, 37, 11, 18, 24, 42, 33, 7, 21, 25, 45, 39, 31, 49, 8, 15, 5, 12, 46, 3, 4, 35, 6), 1182)
82: ((41, 14, 20, 32, 26, 38, 43, 30, 1, 17, 19, 23, 34, 36, 0, 22, 2, 29, 40, 10, 47, 48, 9, 44, 27, 13, 28, 16, 37, 11, 18, 24, 42, 33, 7, 21, 25, 45, 39, 31, 49, 8, 15, 5, 12, 46, 3, 4, 35, 6), 1182)
83: ((41, 14, 20, 32, 26, 38, 43, 30, 1, 17, 19, 23, 34, 36, 0, 22, 2, 29, 40, 10, 47, 48, 9, 44, 27, 13, 28, 16, 37, 11, 18, 24, 42, 33, 7, 21, 25, 45, 39, 31, 49, 8, 15, 5, 12, 46, 3, 4, 35, 6), 1182)
84: ((41, 14, 20, 32, 26, 38, 43, 30, 1, 17, 19, 23, 34, 36, 0, 22, 2, 29, 40, 10, 47, 48, 9, 44, 27, 13, 28, 16, 37, 11, 18, 24, 42, 33, 7, 21, 25, 45, 39, 31, 49, 8, 15, 5, 12, 46, 3, 4, 35, 6), 1182)
85: ((41, 14, 20, 32, 26, 38, 43, 30, 1, 17, 19, 23, 34, 36, 0, 22, 2, 29, 40, 10, 47, 48, 9, 44, 27, 13, 28, 16, 37, 11, 18, 24, 42, 33, 7, 21, 25, 45, 39, 31, 49, 8, 15, 5, 12, 46, 3, 4, 35, 6), 1182)
86: ((41, 14, 20, 32, 26, 38, 43, 30, 1, 17, 19, 23, 34, 36, 0, 22, 2, 29, 40, 10, 47, 48, 9, 44, 27, 13, 28, 16, 37, 11, 18, 24, 42, 33, 7, 21, 25, 45, 39, 31, 49, 8, 15, 5, 12, 46, 3, 4, 35, 6), 1182)
87: ((41, 14, 20, 32, 26, 38, 43, 30, 1, 17, 19, 23, 34, 36, 0, 22, 2, 29, 40, 10, 47, 48, 9, 44, 27, 13, 28, 16, 37, 11, 18, 24, 42, 33, 7, 21, 25, 45, 39, 31, 49, 8, 15, 5, 12, 46, 3, 4, 35, 6), 1182)
88: ((41, 14, 20, 32, 26, 38, 43, 30, 1, 17, 19, 23, 34, 36, 0, 22, 2, 29, 40, 10, 47, 48, 9, 44, 27, 13, 28, 16, 37, 11, 18, 24, 42, 33, 7, 21, 25, 45, 39, 31, 49, 8, 15, 5, 12, 46, 3, 4, 35, 6), 1182)
89: ((41, 14, 20, 32, 26, 38, 43, 30, 1, 17, 19, 23, 34, 36, 0, 22, 2, 29, 40, 10, 47, 48, 9, 44, 27, 13, 28, 16, 37, 11, 18, 24, 42, 33, 7, 21, 25, 45, 39, 31, 49, 8, 15, 5, 12, 46, 3, 4, 35, 6), 1182)
90: ((41, 14, 20, 32, 26, 38, 43, 30, 1, 17, 19, 23, 34, 36, 0, 22, 2, 29, 40, 10, 47, 48, 9, 44, 27, 13, 28, 16, 37, 11, 18, 24, 42, 33, 7, 21, 25, 45, 39, 31, 49, 8, 15, 5, 12, 46, 3, 4, 35, 6), 1182)
91: ((41, 14, 20, 32, 26, 38, 43, 30, 1, 17, 19, 23, 34, 36, 0, 22, 2, 29, 40, 10, 47, 48, 9, 44, 27, 13, 28, 16, 37, 11, 18, 24, 42, 33, 7, 21, 25, 45, 39, 31, 49, 8, 15, 5, 12, 46, 3, 4, 35, 6), 1182)
92: ((41, 14, 20, 32, 26, 38, 43, 30, 1, 17, 19, 23, 34, 36, 0, 22, 2, 29, 40, 10, 47, 48, 9, 44, 27, 13, 28, 16, 37, 11, 18, 24, 42, 33, 7, 21, 25, 45, 39, 31, 49, 8, 15, 5, 12, 46, 3, 4, 35, 6), 1182)
93: ((41, 14, 20, 32, 26, 38, 43, 30, 1, 17, 19, 23, 34, 36, 0, 22, 2, 29, 40, 10, 47, 48, 9, 44, 27, 13, 28, 16, 37, 11, 18, 24, 42, 33, 7, 21, 25, 45, 39, 31, 49, 8, 15, 5, 12, 46, 3, 4, 35, 6), 1182)
94: ((41, 14, 20, 32, 26, 38, 43, 30, 1, 17, 19, 23, 34, 36, 0, 22, 2, 29, 40, 10, 47, 48, 9, 44, 27, 13, 28, 16, 37, 11, 18, 24, 42, 33, 7, 21, 25, 45, 39, 31, 49, 8, 15, 5, 12, 46, 3, 4, 35, 6), 1182)
95: ((41, 14, 20, 32, 26, 38, 43, 30, 1, 17, 19, 23, 34, 36, 0, 22, 2, 29, 40, 10, 47, 48, 9, 44, 27, 13, 28, 16, 37, 11, 18, 24, 42, 33, 7, 21, 25, 45, 39, 31, 49, 8, 15, 5, 12, 46, 3, 4, 35, 6), 1182)
Best: ((41, 14, 20, 32, 26, 38, 43, 30, 1, 17, 19, 23, 34, 36, 0, 22, 2, 29, 40, 10, 47, 48, 9, 44, 27, 13, 28, 16, 37, 11, 18, 24, 42, 33, 7, 21, 25, 45, 39, 31, 49, 8, 15, 5, 12, 46, 3, 4, 35, 6), 1182)
Runtime: 205.122233 s